p cnf 461 1441
1 2 0
-1 -2 0
37 38 0
-37 -38 0
73 74 0
-73 -74 0
109 110 0
-109 -110 0
3 4 0
-3 -4 0
39 40 0
-39 -40 0
75 76 0
-75 -76 0
111 112 0
-111 -112 0
5 6 0
-5 -6 0
41 42 0
-41 -42 0
77 78 0
-77 -78 0
113 114 0
-113 -114 0
7 8 0
-7 -8 0
43 44 0
-43 -44 0
79 80 0
-79 -80 0
115 116 0
-115 -116 0
9 10 0
-9 -10 0
45 46 0
-45 -46 0
81 82 0
-81 -82 0
117 118 0
-117 -118 0
11 12 0
-11 -12 0
47 48 0
-47 -48 0
83 84 0
-83 -84 0
119 120 0
-119 -120 0
13 14 0
-13 -14 0
49 50 0
-49 -50 0
85 86 0
-85 -86 0
121 122 0
-121 -122 0
15 16 0
-15 -16 0
51 52 0
-51 -52 0
87 88 0
-87 -88 0
123 124 0
-123 -124 0
17 18 0
-17 -18 0
53 54 0
-53 -54 0
89 90 0
-89 -90 0
125 126 0
-125 -126 0
19 20 0
-19 -20 0
55 56 0
-55 -56 0
91 92 0
-91 -92 0
127 128 0
-127 -128 0
21 22 0
-21 -22 0
57 58 0
-57 -58 0
93 94 0
-93 -94 0
129 130 0
-129 -130 0
23 24 0
-23 -24 0
59 60 0
-59 -60 0
95 96 0
-95 -96 0
131 132 0
-131 -132 0
25 26 0
-25 -26 0
61 62 0
-61 -62 0
97 98 0
-97 -98 0
133 134 0
-133 -134 0
27 28 0
-27 -28 0
63 64 0
-63 -64 0
99 100 0
-99 -100 0
135 136 0
-135 -136 0
29 30 0
-29 -30 0
65 66 0
-65 -66 0
101 102 0
-101 -102 0
137 138 0
-137 -138 0
31 32 0
-31 -32 0
67 68 0
-67 -68 0
103 104 0
-103 -104 0
139 140 0
-139 -140 0
33 34 0
-33 -34 0
69 70 0
-69 -70 0
105 106 0
-105 -106 0
141 142 0
-141 -142 0
35 36 0
-35 -36 0
71 72 0
-71 -72 0
107 108 0
-107 -108 0
143 144 0
-143 -144 0
381 399 417 435 0
-381 289 0
-399 307 0
-417 325 0
-435 343 0
382 400 418 436 0
-382 290 0
-400 308 0
-418 326 0
-436 344 0
383 401 419 437 0
-383 291 0
-401 309 0
-419 327 0
-437 345 0
384 402 420 438 0
-384 292 0
-402 310 0
-420 328 0
-438 346 0
385 403 421 439 0
-385 293 0
-403 311 0
-421 329 0
-439 347 0
386 404 422 440 0
-386 294 0
-404 312 0
-422 330 0
-440 348 0
387 405 423 441 0
-387 295 0
-405 313 0
-423 331 0
-441 349 0
388 406 424 442 0
-388 296 0
-406 314 0
-424 332 0
-442 350 0
389 407 425 443 0
-389 297 0
-407 315 0
-425 333 0
-443 351 0
390 408 426 444 0
-390 298 0
-408 316 0
-426 334 0
-444 352 0
391 409 427 445 0
-391 299 0
-409 317 0
-427 335 0
-445 353 0
392 410 428 446 0
-392 300 0
-410 318 0
-428 336 0
-446 354 0
393 411 429 447 0
-393 301 0
-411 319 0
-429 337 0
-447 355 0
394 412 430 448 0
-394 302 0
-412 320 0
-430 338 0
-448 356 0
395 413 431 449 0
-395 303 0
-413 321 0
-431 339 0
-449 357 0
396 414 432 450 0
-396 304 0
-414 322 0
-432 340 0
-450 358 0
397 415 433 451 0
-397 305 0
-415 323 0
-433 341 0
-451 359 0
181 -1 -399 39 0
-37 399 39 0
-181 39 0
182 -2 -399 40 0
-38 399 40 0
-182 40 0
217 -37 -417 75 0
-73 417 75 0
-217 75 0
218 -38 -417 76 0
-74 417 76 0
-218 76 0
253 -73 -435 111 0
-109 435 111 0
-253 111 0
254 -74 -435 112 0
-110 435 112 0
-254 112 0
-145 -381 4 0
-1 381 3 0
145 -1 3 0
-146 -381 3 0
-2 381 4 0
146 -2 4 0
183 -3 -400 41 0
-39 400 41 0
-183 41 0
184 -4 -400 42 0
-40 400 42 0
-184 42 0
219 -39 -418 77 0
-75 418 77 0
-219 77 0
220 -40 -418 78 0
-76 418 78 0
-220 78 0
255 -75 -436 113 0
-111 436 113 0
-255 113 0
256 -76 -436 114 0
-112 436 114 0
-256 114 0
-147 -382 6 0
-3 382 5 0
147 -3 5 0
-148 -382 5 0
-4 382 6 0
148 -4 6 0
185 -5 -401 43 0
-41 401 43 0
-185 43 0
186 -6 -401 44 0
-42 401 44 0
-186 44 0
221 -41 -419 79 0
-77 419 79 0
-221 79 0
222 -42 -419 80 0
-78 419 80 0
-222 80 0
257 -77 -437 115 0
-113 437 115 0
-257 115 0
258 -78 -437 116 0
-114 437 116 0
-258 116 0
-149 -383 8 0
-5 383 7 0
149 -5 7 0
-150 -383 7 0
-6 383 8 0
150 -6 8 0
187 -7 -402 45 0
-43 402 45 0
-187 45 0
188 -8 -402 46 0
-44 402 46 0
-188 46 0
223 -43 -420 81 0
-79 420 81 0
-223 81 0
224 -44 -420 82 0
-80 420 82 0
-224 82 0
259 -79 -438 117 0
-115 438 117 0
-259 117 0
260 -80 -438 118 0
-116 438 118 0
-260 118 0
-151 -384 10 0
-7 384 9 0
151 -7 9 0
-152 -384 9 0
-8 384 10 0
152 -8 10 0
189 -9 -403 47 0
-45 403 47 0
-189 47 0
190 -10 -403 48 0
-46 403 48 0
-190 48 0
225 -45 -421 83 0
-81 421 83 0
-225 83 0
226 -46 -421 84 0
-82 421 84 0
-226 84 0
261 -81 -439 119 0
-117 439 119 0
-261 119 0
262 -82 -439 120 0
-118 439 120 0
-262 120 0
-153 -385 12 0
-9 385 11 0
153 -9 11 0
-154 -385 11 0
-10 385 12 0
154 -10 12 0
191 -11 -404 49 0
-47 404 49 0
-191 49 0
192 -12 -404 50 0
-48 404 50 0
-192 50 0
227 -47 -422 85 0
-83 422 85 0
-227 85 0
228 -48 -422 86 0
-84 422 86 0
-228 86 0
263 -83 -440 121 0
-119 440 121 0
-263 121 0
264 -84 -440 122 0
-120 440 122 0
-264 122 0
-155 -386 14 0
-11 386 13 0
155 -11 13 0
-156 -386 13 0
-12 386 14 0
156 -12 14 0
193 -13 -405 51 0
-49 405 51 0
-193 51 0
194 -14 -405 52 0
-50 405 52 0
-194 52 0
229 -49 -423 87 0
-85 423 87 0
-229 87 0
230 -50 -423 88 0
-86 423 88 0
-230 88 0
265 -85 -441 123 0
-121 441 123 0
-265 123 0
266 -86 -441 124 0
-122 441 124 0
-266 124 0
-157 -387 16 0
-13 387 15 0
157 -13 15 0
-158 -387 15 0
-14 387 16 0
158 -14 16 0
195 -15 -406 53 0
-51 406 53 0
-195 53 0
196 -16 -406 54 0
-52 406 54 0
-196 54 0
231 -51 -424 89 0
-87 424 89 0
-231 89 0
232 -52 -424 90 0
-88 424 90 0
-232 90 0
267 -87 -442 125 0
-123 442 125 0
-267 125 0
268 -88 -442 126 0
-124 442 126 0
-268 126 0
-159 -388 18 0
-15 388 17 0
159 -15 17 0
-160 -388 17 0
-16 388 18 0
160 -16 18 0
197 -17 -407 55 0
-53 407 55 0
-197 55 0
198 -18 -407 56 0
-54 407 56 0
-198 56 0
233 -53 -425 91 0
-89 425 91 0
-233 91 0
234 -54 -425 92 0
-90 425 92 0
-234 92 0
269 -89 -443 127 0
-125 443 127 0
-269 127 0
270 -90 -443 128 0
-126 443 128 0
-270 128 0
-161 -389 20 0
-17 389 19 0
161 -17 19 0
-162 -389 19 0
-18 389 20 0
162 -18 20 0
199 -19 -408 57 0
-55 408 57 0
-199 57 0
200 -20 -408 58 0
-56 408 58 0
-200 58 0
235 -55 -426 93 0
-91 426 93 0
-235 93 0
236 -56 -426 94 0
-92 426 94 0
-236 94 0
271 -91 -444 129 0
-127 444 129 0
-271 129 0
272 -92 -444 130 0
-128 444 130 0
-272 130 0
-163 -390 22 0
-19 390 21 0
163 -19 21 0
-164 -390 21 0
-20 390 22 0
164 -20 22 0
201 -21 -409 59 0
-57 409 59 0
-201 59 0
202 -22 -409 60 0
-58 409 60 0
-202 60 0
237 -57 -427 95 0
-93 427 95 0
-237 95 0
238 -58 -427 96 0
-94 427 96 0
-238 96 0
273 -93 -445 131 0
-129 445 131 0
-273 131 0
274 -94 -445 132 0
-130 445 132 0
-274 132 0
-165 -391 24 0
-21 391 23 0
165 -21 23 0
-166 -391 23 0
-22 391 24 0
166 -22 24 0
203 -23 -410 61 0
-59 410 61 0
-203 61 0
204 -24 -410 62 0
-60 410 62 0
-204 62 0
239 -59 -428 97 0
-95 428 97 0
-239 97 0
240 -60 -428 98 0
-96 428 98 0
-240 98 0
275 -95 -446 133 0
-131 446 133 0
-275 133 0
276 -96 -446 134 0
-132 446 134 0
-276 134 0
-167 -392 26 0
-23 392 25 0
167 -23 25 0
-168 -392 25 0
-24 392 26 0
168 -24 26 0
205 -25 -411 63 0
-61 411 63 0
-205 63 0
206 -26 -411 64 0
-62 411 64 0
-206 64 0
241 -61 -429 99 0
-97 429 99 0
-241 99 0
242 -62 -429 100 0
-98 429 100 0
-242 100 0
277 -97 -447 135 0
-133 447 135 0
-277 135 0
278 -98 -447 136 0
-134 447 136 0
-278 136 0
-169 -393 28 0
-25 393 27 0
169 -25 27 0
-170 -393 27 0
-26 393 28 0
170 -26 28 0
207 -27 -412 65 0
-63 412 65 0
-207 65 0
208 -28 -412 66 0
-64 412 66 0
-208 66 0
243 -63 -430 101 0
-99 430 101 0
-243 101 0
244 -64 -430 102 0
-100 430 102 0
-244 102 0
279 -99 -448 137 0
-135 448 137 0
-279 137 0
280 -100 -448 138 0
-136 448 138 0
-280 138 0
-171 -394 30 0
-27 394 29 0
171 -27 29 0
-172 -394 29 0
-28 394 30 0
172 -28 30 0
209 -29 -413 67 0
-65 413 67 0
-209 67 0
210 -30 -413 68 0
-66 413 68 0
-210 68 0
245 -65 -431 103 0
-101 431 103 0
-245 103 0
246 -66 -431 104 0
-102 431 104 0
-246 104 0
281 -101 -449 139 0
-137 449 139 0
-281 139 0
282 -102 -449 140 0
-138 449 140 0
-282 140 0
-173 -395 32 0
-29 395 31 0
173 -29 31 0
-174 -395 31 0
-30 395 32 0
174 -30 32 0
211 -31 -414 69 0
-67 414 69 0
-211 69 0
212 -32 -414 70 0
-68 414 70 0
-212 70 0
247 -67 -432 105 0
-103 432 105 0
-247 105 0
248 -68 -432 106 0
-104 432 106 0
-248 106 0
283 -103 -450 141 0
-139 450 141 0
-283 141 0
284 -104 -450 142 0
-140 450 142 0
-284 142 0
-175 -396 34 0
-31 396 33 0
175 -31 33 0
-176 -396 33 0
-32 396 34 0
176 -32 34 0
213 -33 -415 71 0
-69 415 71 0
-213 71 0
214 -34 -415 72 0
-70 415 72 0
-214 72 0
249 -69 -433 107 0
-105 433 107 0
-249 107 0
250 -70 -433 108 0
-106 433 108 0
-250 108 0
285 -105 -451 143 0
-141 451 143 0
-285 143 0
286 -106 -451 144 0
-142 451 144 0
-286 144 0
-177 -397 36 0
-33 397 35 0
177 -33 35 0
-178 -397 35 0
-34 397 36 0
178 -34 36 0
-145 1 0
-145 109 0
145 -1 -109 0
-146 2 0
-146 110 0
146 -2 -110 0
-181 37 0
-181 1 0
181 -37 -1 0
-182 38 0
-182 2 0
182 -38 -2 0
-217 73 0
-217 37 0
217 -73 -37 0
-218 74 0
-218 38 0
218 -74 -38 0
-253 109 0
-253 73 0
253 -109 -73 0
-254 110 0
-254 74 0
254 -110 -74 0
-147 3 0
-147 111 0
147 -3 -111 0
-148 4 0
-148 112 0
148 -4 -112 0
-183 39 0
-183 3 0
183 -39 -3 0
-184 40 0
-184 4 0
184 -40 -4 0
-219 75 0
-219 39 0
219 -75 -39 0
-220 76 0
-220 40 0
220 -76 -40 0
-255 111 0
-255 75 0
255 -111 -75 0
-256 112 0
-256 76 0
256 -112 -76 0
-149 5 0
-149 113 0
149 -5 -113 0
-150 6 0
-150 114 0
150 -6 -114 0
-185 41 0
-185 5 0
185 -41 -5 0
-186 42 0
-186 6 0
186 -42 -6 0
-221 77 0
-221 41 0
221 -77 -41 0
-222 78 0
-222 42 0
222 -78 -42 0
-257 113 0
-257 77 0
257 -113 -77 0
-258 114 0
-258 78 0
258 -114 -78 0
-151 7 0
-151 115 0
151 -7 -115 0
-152 8 0
-152 116 0
152 -8 -116 0
-187 43 0
-187 7 0
187 -43 -7 0
-188 44 0
-188 8 0
188 -44 -8 0
-223 79 0
-223 43 0
223 -79 -43 0
-224 80 0
-224 44 0
224 -80 -44 0
-259 115 0
-259 79 0
259 -115 -79 0
-260 116 0
-260 80 0
260 -116 -80 0
-153 9 0
-153 117 0
153 -9 -117 0
-154 10 0
-154 118 0
154 -10 -118 0
-189 45 0
-189 9 0
189 -45 -9 0
-190 46 0
-190 10 0
190 -46 -10 0
-225 81 0
-225 45 0
225 -81 -45 0
-226 82 0
-226 46 0
226 -82 -46 0
-261 117 0
-261 81 0
261 -117 -81 0
-262 118 0
-262 82 0
262 -118 -82 0
-155 11 0
-155 119 0
155 -11 -119 0
-156 12 0
-156 120 0
156 -12 -120 0
-191 47 0
-191 11 0
191 -47 -11 0
-192 48 0
-192 12 0
192 -48 -12 0
-227 83 0
-227 47 0
227 -83 -47 0
-228 84 0
-228 48 0
228 -84 -48 0
-263 119 0
-263 83 0
263 -119 -83 0
-264 120 0
-264 84 0
264 -120 -84 0
-157 13 0
-157 121 0
157 -13 -121 0
-158 14 0
-158 122 0
158 -14 -122 0
-193 49 0
-193 13 0
193 -49 -13 0
-194 50 0
-194 14 0
194 -50 -14 0
-229 85 0
-229 49 0
229 -85 -49 0
-230 86 0
-230 50 0
230 -86 -50 0
-265 121 0
-265 85 0
265 -121 -85 0
-266 122 0
-266 86 0
266 -122 -86 0
-159 15 0
-159 123 0
159 -15 -123 0
-160 16 0
-160 124 0
160 -16 -124 0
-195 51 0
-195 15 0
195 -51 -15 0
-196 52 0
-196 16 0
196 -52 -16 0
-231 87 0
-231 51 0
231 -87 -51 0
-232 88 0
-232 52 0
232 -88 -52 0
-267 123 0
-267 87 0
267 -123 -87 0
-268 124 0
-268 88 0
268 -124 -88 0
-161 17 0
-161 125 0
161 -17 -125 0
-162 18 0
-162 126 0
162 -18 -126 0
-197 53 0
-197 17 0
197 -53 -17 0
-198 54 0
-198 18 0
198 -54 -18 0
-233 89 0
-233 53 0
233 -89 -53 0
-234 90 0
-234 54 0
234 -90 -54 0
-269 125 0
-269 89 0
269 -125 -89 0
-270 126 0
-270 90 0
270 -126 -90 0
-163 19 0
-163 127 0
163 -19 -127 0
-164 20 0
-164 128 0
164 -20 -128 0
-199 55 0
-199 19 0
199 -55 -19 0
-200 56 0
-200 20 0
200 -56 -20 0
-235 91 0
-235 55 0
235 -91 -55 0
-236 92 0
-236 56 0
236 -92 -56 0
-271 127 0
-271 91 0
271 -127 -91 0
-272 128 0
-272 92 0
272 -128 -92 0
-165 21 0
-165 129 0
165 -21 -129 0
-166 22 0
-166 130 0
166 -22 -130 0
-201 57 0
-201 21 0
201 -57 -21 0
-202 58 0
-202 22 0
202 -58 -22 0
-237 93 0
-237 57 0
237 -93 -57 0
-238 94 0
-238 58 0
238 -94 -58 0
-273 129 0
-273 93 0
273 -129 -93 0
-274 130 0
-274 94 0
274 -130 -94 0
-167 23 0
-167 131 0
167 -23 -131 0
-168 24 0
-168 132 0
168 -24 -132 0
-203 59 0
-203 23 0
203 -59 -23 0
-204 60 0
-204 24 0
204 -60 -24 0
-239 95 0
-239 59 0
239 -95 -59 0
-240 96 0
-240 60 0
240 -96 -60 0
-275 131 0
-275 95 0
275 -131 -95 0
-276 132 0
-276 96 0
276 -132 -96 0
-169 25 0
-169 133 0
169 -25 -133 0
-170 26 0
-170 134 0
170 -26 -134 0
-205 61 0
-205 25 0
205 -61 -25 0
-206 62 0
-206 26 0
206 -62 -26 0
-241 97 0
-241 61 0
241 -97 -61 0
-242 98 0
-242 62 0
242 -98 -62 0
-277 133 0
-277 97 0
277 -133 -97 0
-278 134 0
-278 98 0
278 -134 -98 0
-171 27 0
-171 135 0
171 -27 -135 0
-172 28 0
-172 136 0
172 -28 -136 0
-207 63 0
-207 27 0
207 -63 -27 0
-208 64 0
-208 28 0
208 -64 -28 0
-243 99 0
-243 63 0
243 -99 -63 0
-244 100 0
-244 64 0
244 -100 -64 0
-279 135 0
-279 99 0
279 -135 -99 0
-280 136 0
-280 100 0
280 -136 -100 0
-173 29 0
-173 137 0
173 -29 -137 0
-174 30 0
-174 138 0
174 -30 -138 0
-209 65 0
-209 29 0
209 -65 -29 0
-210 66 0
-210 30 0
210 -66 -30 0
-245 101 0
-245 65 0
245 -101 -65 0
-246 102 0
-246 66 0
246 -102 -66 0
-281 137 0
-281 101 0
281 -137 -101 0
-282 138 0
-282 102 0
282 -138 -102 0
-175 31 0
-175 139 0
175 -31 -139 0
-176 32 0
-176 140 0
176 -32 -140 0
-211 67 0
-211 31 0
211 -67 -31 0
-212 68 0
-212 32 0
212 -68 -32 0
-247 103 0
-247 67 0
247 -103 -67 0
-248 104 0
-248 68 0
248 -104 -68 0
-283 139 0
-283 103 0
283 -139 -103 0
-284 140 0
-284 104 0
284 -140 -104 0
-177 33 0
-177 141 0
177 -33 -141 0
-178 34 0
-178 142 0
178 -34 -142 0
-213 69 0
-213 33 0
213 -69 -33 0
-214 70 0
-214 34 0
214 -70 -34 0
-249 105 0
-249 69 0
249 -105 -69 0
-250 106 0
-250 70 0
250 -106 -70 0
-285 141 0
-285 105 0
285 -141 -105 0
-286 142 0
-286 106 0
286 -142 -106 0
-179 35 0
-179 143 0
179 -35 -143 0
-180 36 0
-180 144 0
180 -36 -144 0
-215 71 0
-215 35 0
215 -71 -35 0
-216 72 0
-216 36 0
216 -72 -36 0
-251 107 0
-251 71 0
251 -107 -71 0
-252 108 0
-252 72 0
252 -108 -72 0
-287 143 0
-287 107 0
287 -143 -107 0
-288 144 0
-288 108 0
288 -144 -108 0
-289 145 146 0
-307 -181 0
-307 -182 0
-325 -217 0
-325 -218 0
-343 -253 0
-343 -254 0
-290 147 148 0
-308 -183 0
-308 -184 0
-326 -219 0
-326 -220 0
-344 -255 0
-344 -256 0
-291 149 150 0
-309 -185 0
-309 -186 0
-327 -221 0
-327 -222 0
-345 -257 0
-345 -258 0
-292 151 152 0
-310 -187 0
-310 -188 0
-328 -223 0
-328 -224 0
-346 -259 0
-346 -260 0
-293 153 154 0
-311 -189 0
-311 -190 0
-329 -225 0
-329 -226 0
-347 -261 0
-347 -262 0
-294 155 156 0
-312 -191 0
-312 -192 0
-330 -227 0
-330 -228 0
-348 -263 0
-348 -264 0
-295 157 158 0
-313 -193 0
-313 -194 0
-331 -229 0
-331 -230 0
-349 -265 0
-349 -266 0
-296 159 160 0
-314 -195 0
-314 -196 0
-332 -231 0
-332 -232 0
-350 -267 0
-350 -268 0
-297 161 162 0
-315 -197 0
-315 -198 0
-333 -233 0
-333 -234 0
-351 -269 0
-351 -270 0
-298 163 164 0
-316 -199 0
-316 -200 0
-334 -235 0
-334 -236 0
-352 -271 0
-352 -272 0
-299 165 166 0
-317 -201 0
-317 -202 0
-335 -237 0
-335 -238 0
-353 -273 0
-353 -274 0
-300 167 168 0
-318 -203 0
-318 -204 0
-336 -239 0
-336 -240 0
-354 -275 0
-354 -276 0
-301 169 170 0
-319 -205 0
-319 -206 0
-337 -241 0
-337 -242 0
-355 -277 0
-355 -278 0
-302 171 172 0
-320 -207 0
-320 -208 0
-338 -243 0
-338 -244 0
-356 -279 0
-356 -280 0
-303 173 174 0
-321 -209 0
-321 -210 0
-339 -245 0
-339 -246 0
-357 -281 0
-357 -282 0
-304 175 176 0
-322 -211 0
-322 -212 0
-340 -247 0
-340 -248 0
-358 -283 0
-358 -284 0
-305 177 178 0
-323 -213 0
-323 -214 0
-341 -249 0
-341 -250 0
-359 -285 0
-359 -286 0
-306 179 180 0
-324 -215 0
-324 -216 0
-342 -251 0
-342 -252 0
-360 -287 0
-360 -288 0
306 452 0
324 452 0
306 324 453 0
342 454 0
360 454 0
342 360 455 0
-452 456 0
-454 456 0
-452 -454 457 0
-453 458 0
-455 458 0
-453 -455 459 0
-457 460 0
-458 460 0
-457 -458 461 0
-461 0
-307 -181 0
-307 -182 0
307 181 182 0
-325 -217 0
-325 -218 0
325 217 218 0
-343 -253 0
-343 -254 0
343 253 254 0
-308 -183 0
-308 -184 0
308 183 184 0
-326 -219 0
-326 -220 0
326 219 220 0
-344 -255 0
-344 -256 0
344 255 256 0
-309 -185 0
-309 -186 0
309 185 186 0
-327 -221 0
-327 -222 0
327 221 222 0
-345 -257 0
-345 -258 0
345 257 258 0
-310 -187 0
-310 -188 0
310 187 188 0
-328 -223 0
-328 -224 0
328 223 224 0
-346 -259 0
-346 -260 0
346 259 260 0
-311 -189 0
-311 -190 0
311 189 190 0
-329 -225 0
-329 -226 0
329 225 226 0
-347 -261 0
-347 -262 0
347 261 262 0
-312 -191 0
-312 -192 0
312 191 192 0
-330 -227 0
-330 -228 0
330 227 228 0
-348 -263 0
-348 -264 0
348 263 264 0
-313 -193 0
-313 -194 0
313 193 194 0
-331 -229 0
-331 -230 0
331 229 230 0
-349 -265 0
-349 -266 0
349 265 266 0
-314 -195 0
-314 -196 0
314 195 196 0
-332 -231 0
-332 -232 0
332 231 232 0
-350 -267 0
-350 -268 0
350 267 268 0
-315 -197 0
-315 -198 0
315 197 198 0
-333 -233 0
-333 -234 0
333 233 234 0
-351 -269 0
-351 -270 0
351 269 270 0
-316 -199 0
-316 -200 0
316 199 200 0
-334 -235 0
-334 -236 0
334 235 236 0
-352 -271 0
-352 -272 0
352 271 272 0
-317 -201 0
-317 -202 0
317 201 202 0
-335 -237 0
-335 -238 0
335 237 238 0
-353 -273 0
-353 -274 0
353 273 274 0
-318 -203 0
-318 -204 0
318 203 204 0
-336 -239 0
-336 -240 0
336 239 240 0
-354 -275 0
-354 -276 0
354 275 276 0
-319 -205 0
-319 -206 0
319 205 206 0
-337 -241 0
-337 -242 0
337 241 242 0
-355 -277 0
-355 -278 0
355 277 278 0
-320 -207 0
-320 -208 0
320 207 208 0
-338 -243 0
-338 -244 0
338 243 244 0
-356 -279 0
-356 -280 0
356 279 280 0
-321 -209 0
-321 -210 0
321 209 210 0
-339 -245 0
-339 -246 0
339 245 246 0
-357 -281 0
-357 -282 0
357 281 282 0
-322 -211 0
-322 -212 0
322 211 212 0
-340 -247 0
-340 -248 0
340 247 248 0
-358 -283 0
-358 -284 0
358 283 284 0
-323 -213 0
-323 -214 0
323 213 214 0
-341 -249 0
-341 -250 0
341 249 250 0
-359 -285 0
-359 -286 0
359 285 286 0
-324 -215 0
-324 -216 0
324 215 216 0
-342 -251 0
-342 -252 0
342 251 252 0
-360 -287 0
-360 -288 0
360 287 288 0
-289 381 0
-307 399 0
-325 417 0
-343 435 0
-290 382 0
-308 400 0
-326 418 0
-344 436 0
-291 383 0
-309 401 0
-327 419 0
-345 437 0
-292 384 0
-310 402 0
-328 420 0
-346 438 0
-293 385 0
-311 403 0
-329 421 0
-347 439 0
-294 386 0
-312 404 0
-330 422 0
-348 440 0
-295 387 0
-313 405 0
-331 423 0
-349 441 0
-296 388 0
-314 406 0
-332 424 0
-350 442 0
-297 389 0
-315 407 0
-333 425 0
-351 443 0
-298 390 0
-316 408 0
-334 426 0
-352 444 0
-299 391 0
-317 409 0
-335 427 0
-353 445 0
-300 392 0
-318 410 0
-336 428 0
-354 446 0
-301 393 0
-319 411 0
-337 429 0
-355 447 0
-302 394 0
-320 412 0
-338 430 0
-356 448 0
-303 395 0
-321 413 0
-339 431 0
-357 449 0
-304 396 0
-322 414 0
-340 432 0
-358 450 0
-305 397 0
-323 415 0
-341 433 0
-359 451 0
